Gurobi 12.0.1:   lim:time = 14400
  mip:bestbound = 1
Set parameter LogToConsole to value 1
  tech:outlev = 1
Set parameter InfUnbdInfo to value 1
Gurobi Optimizer version 12.0.1 build v12.0.1rc0 (win64 - Windows 11.0 (26100.2))

CPU model: Intel(R) Core(TM) i7-10700 CPU @ 2.90GHz, instruction set [SSE2|AVX|AVX2]
Thread count: 8 physical cores, 16 logical processors, using up to 16 threads

Non-default parameters:
TimeLimit  14400
InfUnbdInfo  1

Optimize a model with 194 rows, 157 columns and 868 nonzeros
Model fingerprint: 0xfb6ba3d2
Model has 2 quadratic constraints
Variable types: 20 continuous, 137 integer (0 binary)
Coefficient statistics:
  Matrix range     [1e+00, 1e+05]
  QMatrix range    [1e+00, 1e+00]
  QLMatrix range   [4e+00, 2e+01]
  Objective range  [2e+01, 1e+02]
  Bounds range     [1e+00, 8e+01]
  RHS range        [1e+00, 1e+05]
  QRHS range       [1e+02, 1e+02]
Presolve removed 23 rows and 23 columns
Presolve time: 0.01s
Presolved: 245 rows, 182 columns, 1127 nonzeros
Variable types: 12 continuous, 170 integer (170 binary)
Found heuristic solution: objective 339.3800000

Root relaxation: objective 1.214799e+02, 25 iterations, 0.00 seconds (0.00 work units)

    Nodes    |    Current Node    |     Objective Bounds      |     Work
 Expl Unexpl |  Obj  Depth IntInf | Incumbent    BestBd   Gap | It/Node Time

     0     0  121.47987    0   14  339.38000  121.47987  64.2%     -    0s
H    0     0                     314.5200000  121.47987  61.4%     -    0s
H    0     0                     313.5400000  121.47987  61.3%     -    0s
H    0     0                     292.8100000  121.47987  58.5%     -    0s
     0     0  151.26685    0   21  292.81000  151.26685  48.3%     -    0s
H    0     0                     273.4300000  151.26685  44.7%     -    0s
     0     0  183.04000    0    6  273.43000  183.04000  33.1%     -    0s
     0     0  183.04000    0    6  273.43000  183.04000  33.1%     -    0s
     0     2  183.04000    0    6  273.43000  183.04000  33.1%     -    0s
*   35    27               6     269.0600000  183.08776  32.0%   6.0    0s
*   36    27               4     251.0800000  183.08776  27.1%   6.1    0s

Cutting planes:
  Learned: 4
  Implied bound: 3
  Inf proof: 2

Explored 128 nodes (628 simplex iterations) in 0.09 seconds (0.04 work units)
Thread count was 16 (of 16 available processors)

Solution count 7: 251.08 269.06 273.43 ... 339.38

Optimal solution found (tolerance 1.00e-04)
Best objective 2.510800000000e+02, best bound 2.510800000000e+02, gap 0.0000%

AMPL MP initial flat model has 157 variables (0 integer, 137 binary);
Objectives: 1 linear; 
Constraints:  194 linear; 2 quadratic;

AMPL MP final model has 157 variables (0 integer, 137 binary);
Objectives: 1 linear; 
Constraints:  194 linear; 2 quadratic;


-----RESULTS INFO-----
running_time:  0.313
TC.best_bound:  251.08
TC:  251.07999999999998
MIP Gap (%):  1.1319782312571294e-14
=== Vehicle Routes ===
Vehicle 1: 0 → 1
Vehicle 1: 1 → 5
Vehicle 1: 2 → 3
Vehicle 1: 3 → 14
Vehicle 1: 5 → 7
Vehicle 1: 7 → 2
Vehicle 2: 0 → 14

=== Full Vehicle Routes ===
Vehicle 1: 0 → 1 → 5 → 7 → 2 → 3 → 0 (65<100)
Vehicle 2: 0 → 0 (0<100)
Arc used by MRT line: y variables:
Customer assigment to PL: u variables:
4 7
Node is served by regular vehicle: g variables:
1
2
3
5
7
Customer assigment to Home delivery: gm variables:
1
2
3
5
Node total demands: ntd variables:
1 14 1
2 4 1
3 22 1
5 19 1
12 0 0
13 0 0
6 0 0
7 6 1
8 0 0
9 0 0
10 0 0
11 0 0
Customer's demand delivered to PL: l variables:
4
Lockers load <= capacity:
0 <= 98
0 <= 83
0 <= 86
6 <= 76
0 <= 71
0 <= 84
0 <= 94
0 <= 72
